(set-info :category "industrial")
(set-info :status sat)
(declare-fun x00 () (_ BitVec 8))
(declare-fun x02 () (_ BitVec 8))
(declare-fun x06 () (_ BitVec 8))
(declare-fun x08 () (_ BitVec 8))
(declare-fun x10 () (_ BitVec 8))
(declare-fun x14 () (_ BitVec 8))
(declare-fun x15 () (_ BitVec 8))
(declare-fun x16 () (_ BitVec 8))
(declare-fun x17 () (_ BitVec 8))
(declare-fun x18 () (_ BitVec 8))
(declare-fun x20 () (_ BitVec 8))
(declare-fun x21 () (_ BitVec 8))
(declare-fun x22 () (_ BitVec 8))
(declare-fun x23 () (_ BitVec 8))
(declare-fun x24 () (_ BitVec 8))
(declare-fun x25 () (_ BitVec 8))
(declare-fun x26 () (_ BitVec 8))
(declare-fun x30 () (_ BitVec 8))
(declare-fun x32 () (_ BitVec 8))
(declare-fun x33 () (_ BitVec 8))
(declare-fun x34 () (_ BitVec 8))
(declare-fun x38 () (_ BitVec 8))
(declare-fun x41 () (_ BitVec 8))
(declare-fun x42 () (_ BitVec 8))
(declare-fun x44 () (_ BitVec 8))
(declare-fun x45 () (_ BitVec 8))
(declare-fun x47 () (_ BitVec 8))
(declare-fun x48 () (_ BitVec 8))
(declare-fun x51 () (_ BitVec 8))
(declare-fun x54 () (_ BitVec 8))
(declare-fun x57 () (_ BitVec 8))
(declare-fun x58 () (_ BitVec 8))
(declare-fun x61 () (_ BitVec 8))
(declare-fun x62 () (_ BitVec 8))
(declare-fun x63 () (_ BitVec 8))
(declare-fun x64 () (_ BitVec 8))
(declare-fun x65 () (_ BitVec 8))
(declare-fun x66 () (_ BitVec 8))
(declare-fun x67 () (_ BitVec 8))
(declare-fun x68 () (_ BitVec 8))
(declare-fun x70 () (_ BitVec 8))
(declare-fun x73 () (_ BitVec 8))
(declare-fun x74 () (_ BitVec 8))
(declare-fun x77 () (_ BitVec 8))
(declare-fun x80 () (_ BitVec 8))
(declare-fun x82 () (_ BitVec 8))
(declare-fun x85 () (_ BitVec 8))
(declare-fun x86 () (_ BitVec 8))
(declare-fun x87 () (_ BitVec 8))
(assert (bvult x00 (_ bv9 8)))
(assert (bvult x02 (_ bv9 8)))
(assert (bvult x06 (_ bv9 8)))
(assert (bvult x08 (_ bv9 8)))
(assert (bvult x10 (_ bv9 8)))
(assert (bvult x14 (_ bv9 8)))
(assert (bvult x15 (_ bv9 8)))
(assert (bvult x16 (_ bv9 8)))
(assert (bvult x17 (_ bv9 8)))
(assert (bvult x18 (_ bv9 8)))
(assert (bvult x20 (_ bv9 8)))
(assert (bvult x21 (_ bv9 8)))
(assert (bvult x22 (_ bv9 8)))
(assert (bvult x23 (_ bv9 8)))
(assert (bvult x24 (_ bv9 8)))
(assert (bvult x25 (_ bv9 8)))
(assert (bvult x26 (_ bv9 8)))
(assert (bvult x30 (_ bv9 8)))
(assert (bvult x32 (_ bv9 8)))
(assert (bvult x33 (_ bv9 8)))
(assert (bvult x34 (_ bv9 8)))
(assert (bvult x38 (_ bv9 8)))
(assert (bvult x41 (_ bv9 8)))
(assert (bvult x42 (_ bv9 8)))
(assert (bvult x44 (_ bv9 8)))
(assert (bvult x45 (_ bv9 8)))
(assert (bvult x47 (_ bv9 8)))
(assert (bvult x48 (_ bv9 8)))
(assert (bvult x51 (_ bv9 8)))
(assert (bvult x54 (_ bv9 8)))
(assert (bvult x57 (_ bv9 8)))
(assert (bvult x58 (_ bv9 8)))
(assert (bvult x61 (_ bv9 8)))
(assert (bvult x62 (_ bv9 8)))
(assert (bvult x63 (_ bv9 8)))
(assert (bvult x64 (_ bv9 8)))
(assert (bvult x65 (_ bv9 8)))
(assert (bvult x66 (_ bv9 8)))
(assert (bvult x67 (_ bv9 8)))
(assert (bvult x68 (_ bv9 8)))
(assert (bvult x70 (_ bv9 8)))
(assert (bvult x73 (_ bv9 8)))
(assert (bvult x74 (_ bv9 8)))
(assert (bvult x77 (_ bv9 8)))
(assert (bvult x80 (_ bv9 8)))
(assert (bvult x82 (_ bv9 8)))
(assert (bvult x85 (_ bv9 8)))
(assert (bvult x86 (_ bv9 8)))
(assert (bvult x87 (_ bv9 8)))
(assert (not (= x00 (_ bv9 8))))
(assert (not (= x00 x02)))
(assert (not (= x00 (_ bv6 8))))
(assert (not (= x00 (_ bv2 8))))
(assert (not (= x00 (_ bv3 8))))
(assert (not (= x00 x06)))
(assert (not (= x00 (_ bv1 8))))
(assert (not (= x00 x08)))
(assert (not (= (_ bv9 8) x02)))
(assert (not (= (_ bv9 8) (_ bv6 8))))
(assert (not (= (_ bv9 8) (_ bv2 8))))
(assert (not (= (_ bv9 8) (_ bv3 8))))
(assert (not (= (_ bv9 8) x06)))
(assert (not (= (_ bv9 8) (_ bv1 8))))
(assert (not (= (_ bv9 8) x08)))
(assert (not (= x02 (_ bv6 8))))
(assert (not (= x02 (_ bv2 8))))
(assert (not (= x02 (_ bv3 8))))
(assert (not (= x02 x06)))
(assert (not (= x02 (_ bv1 8))))
(assert (not (= x02 x08)))
(assert (not (= (_ bv6 8) (_ bv2 8))))
(assert (not (= (_ bv6 8) (_ bv3 8))))
(assert (not (= (_ bv6 8) x06)))
(assert (not (= (_ bv6 8) (_ bv1 8))))
(assert (not (= (_ bv6 8) x08)))
(assert (not (= (_ bv2 8) (_ bv3 8))))
(assert (not (= (_ bv2 8) x06)))
(assert (not (= (_ bv2 8) (_ bv1 8))))
(assert (not (= (_ bv2 8) x08)))
(assert (not (= (_ bv3 8) x06)))
(assert (not (= (_ bv3 8) (_ bv1 8))))
(assert (not (= (_ bv3 8) x08)))
(assert (not (= x06 (_ bv1 8))))
(assert (not (= x06 x08)))
(assert (not (= (_ bv1 8) x08)))
(assert (not (= x10 (_ bv4 8))))
(assert (not (= x10 (_ bv8 8))))
(assert (not (= x10 (_ bv9 8))))
(assert (not (= x10 x14)))
(assert (not (= x10 x15)))
(assert (not (= x10 x16)))
(assert (not (= x10 x17)))
(assert (not (= x10 x18)))
(assert (not (= (_ bv4 8) (_ bv8 8))))
(assert (not (= (_ bv4 8) (_ bv9 8))))
(assert (not (= (_ bv4 8) x14)))
(assert (not (= (_ bv4 8) x15)))
(assert (not (= (_ bv4 8) x16)))
(assert (not (= (_ bv4 8) x17)))
(assert (not (= (_ bv4 8) x18)))
(assert (not (= (_ bv8 8) (_ bv9 8))))
(assert (not (= (_ bv8 8) x14)))
(assert (not (= (_ bv8 8) x15)))
(assert (not (= (_ bv8 8) x16)))
(assert (not (= (_ bv8 8) x17)))
(assert (not (= (_ bv8 8) x18)))
(assert (not (= (_ bv9 8) x14)))
(assert (not (= (_ bv9 8) x15)))
(assert (not (= (_ bv9 8) x16)))
(assert (not (= (_ bv9 8) x17)))
(assert (not (= (_ bv9 8) x18)))
(assert (not (= x14 x15)))
(assert (not (= x14 x16)))
(assert (not (= x14 x17)))
(assert (not (= x14 x18)))
(assert (not (= x15 x16)))
(assert (not (= x15 x17)))
(assert (not (= x15 x18)))
(assert (not (= x16 x17)))
(assert (not (= x16 x18)))
(assert (not (= x17 x18)))
(assert (not (= x20 x21)))
(assert (not (= x20 x22)))
(assert (not (= x20 x23)))
(assert (not (= x20 x24)))
(assert (not (= x20 x25)))
(assert (not (= x20 x26)))
(assert (not (= x20 (_ bv9 8))))
(assert (not (= x20 (_ bv5 8))))
(assert (not (= x21 x22)))
(assert (not (= x21 x23)))
(assert (not (= x21 x24)))
(assert (not (= x21 x25)))
(assert (not (= x21 x26)))
(assert (not (= x21 (_ bv9 8))))
(assert (not (= x21 (_ bv5 8))))
(assert (not (= x22 x23)))
(assert (not (= x22 x24)))
(assert (not (= x22 x25)))
(assert (not (= x22 x26)))
(assert (not (= x22 (_ bv9 8))))
(assert (not (= x22 (_ bv5 8))))
(assert (not (= x23 x24)))
(assert (not (= x23 x25)))
(assert (not (= x23 x26)))
(assert (not (= x23 (_ bv9 8))))
(assert (not (= x23 (_ bv5 8))))
(assert (not (= x24 x25)))
(assert (not (= x24 x26)))
(assert (not (= x24 (_ bv9 8))))
(assert (not (= x24 (_ bv5 8))))
(assert (not (= x25 x26)))
(assert (not (= x25 (_ bv9 8))))
(assert (not (= x25 (_ bv5 8))))
(assert (not (= x26 (_ bv9 8))))
(assert (not (= x26 (_ bv5 8))))
(assert (not (= (_ bv9 8) (_ bv5 8))))
(assert (not (= x30 (_ bv6 8))))
(assert (not (= x30 x32)))
(assert (not (= x30 x33)))
(assert (not (= x30 x34)))
(assert (not (= x30 (_ bv9 8))))
(assert (not (= x30 (_ bv4 8))))
(assert (not (= x30 (_ bv5 8))))
(assert (not (= x30 x38)))
(assert (not (= (_ bv6 8) x32)))
(assert (not (= (_ bv6 8) x33)))
(assert (not (= (_ bv6 8) x34)))
(assert (not (= (_ bv6 8) (_ bv9 8))))
(assert (not (= (_ bv6 8) (_ bv4 8))))
(assert (not (= (_ bv6 8) (_ bv5 8))))
(assert (not (= (_ bv6 8) x38)))
(assert (not (= x32 x33)))
(assert (not (= x32 x34)))
(assert (not (= x32 (_ bv9 8))))
(assert (not (= x32 (_ bv4 8))))
(assert (not (= x32 (_ bv5 8))))
(assert (not (= x32 x38)))
(assert (not (= x33 x34)))
(assert (not (= x33 (_ bv9 8))))
(assert (not (= x33 (_ bv4 8))))
(assert (not (= x33 (_ bv5 8))))
(assert (not (= x33 x38)))
(assert (not (= x34 (_ bv9 8))))
(assert (not (= x34 (_ bv4 8))))
(assert (not (= x34 (_ bv5 8))))
(assert (not (= x34 x38)))
(assert (not (= (_ bv9 8) (_ bv4 8))))
(assert (not (= (_ bv9 8) (_ bv5 8))))
(assert (not (= (_ bv9 8) x38)))
(assert (not (= (_ bv4 8) (_ bv5 8))))
(assert (not (= (_ bv4 8) x38)))
(assert (not (= (_ bv5 8) x38)))
(assert (not (= (_ bv7 8) x41)))
(assert (not (= (_ bv7 8) x42)))
(assert (not (= (_ bv7 8) (_ bv3 8))))
(assert (not (= (_ bv7 8) x44)))
(assert (not (= (_ bv7 8) x45)))
(assert (not (= (_ bv7 8) (_ bv1 8))))
(assert (not (= (_ bv7 8) x47)))
(assert (not (= (_ bv7 8) x48)))
(assert (not (= x41 x42)))
(assert (not (= x41 (_ bv3 8))))
(assert (not (= x41 x44)))
(assert (not (= x41 x45)))
(assert (not (= x41 (_ bv1 8))))
(assert (not (= x41 x47)))
(assert (not (= x41 x48)))
(assert (not (= x42 (_ bv3 8))))
(assert (not (= x42 x44)))
(assert (not (= x42 x45)))
(assert (not (= x42 (_ bv1 8))))
(assert (not (= x42 x47)))
(assert (not (= x42 x48)))
(assert (not (= (_ bv3 8) x44)))
(assert (not (= (_ bv3 8) x45)))
(assert (not (= (_ bv3 8) (_ bv1 8))))
(assert (not (= (_ bv3 8) x47)))
(assert (not (= (_ bv3 8) x48)))
(assert (not (= x44 x45)))
(assert (not (= x44 (_ bv1 8))))
(assert (not (= x44 x47)))
(assert (not (= x44 x48)))
(assert (not (= x45 (_ bv1 8))))
(assert (not (= x45 x47)))
(assert (not (= x45 x48)))
(assert (not (= (_ bv1 8) x47)))
(assert (not (= (_ bv1 8) x48)))
(assert (not (= x47 x48)))
(assert (not (= (_ bv1 8) x51)))
(assert (not (= (_ bv1 8) (_ bv9 8))))
(assert (not (= (_ bv1 8) (_ bv7 8))))
(assert (not (= (_ bv1 8) x54)))
(assert (not (= (_ bv1 8) (_ bv5 8))))
(assert (not (= (_ bv1 8) (_ bv3 8))))
(assert (not (= (_ bv1 8) x57)))
(assert (not (= (_ bv1 8) x58)))
(assert (not (= x51 (_ bv9 8))))
(assert (not (= x51 (_ bv7 8))))
(assert (not (= x51 x54)))
(assert (not (= x51 (_ bv5 8))))
(assert (not (= x51 (_ bv3 8))))
(assert (not (= x51 x57)))
(assert (not (= x51 x58)))
(assert (not (= (_ bv9 8) (_ bv7 8))))
(assert (not (= (_ bv9 8) x54)))
(assert (not (= (_ bv9 8) (_ bv5 8))))
(assert (not (= (_ bv9 8) (_ bv3 8))))
(assert (not (= (_ bv9 8) x57)))
(assert (not (= (_ bv9 8) x58)))
(assert (not (= (_ bv7 8) x54)))
(assert (not (= (_ bv7 8) (_ bv5 8))))
(assert (not (= (_ bv7 8) (_ bv3 8))))
(assert (not (= (_ bv7 8) x57)))
(assert (not (= (_ bv7 8) x58)))
(assert (not (= x54 (_ bv5 8))))
(assert (not (= x54 (_ bv3 8))))
(assert (not (= x54 x57)))
(assert (not (= x54 x58)))
(assert (not (= (_ bv5 8) (_ bv3 8))))
(assert (not (= (_ bv5 8) x57)))
(assert (not (= (_ bv5 8) x58)))
(assert (not (= (_ bv3 8) x57)))
(assert (not (= (_ bv3 8) x58)))
(assert (not (= x57 x58)))
(assert (not (= (_ bv6 8) x61)))
(assert (not (= (_ bv6 8) x62)))
(assert (not (= (_ bv6 8) x63)))
(assert (not (= (_ bv6 8) x64)))
(assert (not (= (_ bv6 8) x65)))
(assert (not (= (_ bv6 8) x66)))
(assert (not (= (_ bv6 8) x67)))
(assert (not (= (_ bv6 8) x68)))
(assert (not (= x61 x62)))
(assert (not (= x61 x63)))
(assert (not (= x61 x64)))
(assert (not (= x61 x65)))
(assert (not (= x61 x66)))
(assert (not (= x61 x67)))
(assert (not (= x61 x68)))
(assert (not (= x62 x63)))
(assert (not (= x62 x64)))
(assert (not (= x62 x65)))
(assert (not (= x62 x66)))
(assert (not (= x62 x67)))
(assert (not (= x62 x68)))
(assert (not (= x63 x64)))
(assert (not (= x63 x65)))
(assert (not (= x63 x66)))
(assert (not (= x63 x67)))
(assert (not (= x63 x68)))
(assert (not (= x64 x65)))
(assert (not (= x64 x66)))
(assert (not (= x64 x67)))
(assert (not (= x64 x68)))
(assert (not (= x65 x66)))
(assert (not (= x65 x67)))
(assert (not (= x65 x68)))
(assert (not (= x66 x67)))
(assert (not (= x66 x68)))
(assert (not (= x67 x68)))
(assert (not (= x70 (_ bv3 8))))
(assert (not (= x70 (_ bv5 8))))
(assert (not (= x70 x73)))
(assert (not (= x70 x74)))
(assert (not (= x70 (_ bv2 8))))
(assert (not (= x70 (_ bv7 8))))
(assert (not (= x70 x77)))
(assert (not (= x70 (_ bv8 8))))
(assert (not (= (_ bv3 8) (_ bv5 8))))
(assert (not (= (_ bv3 8) x73)))
(assert (not (= (_ bv3 8) x74)))
(assert (not (= (_ bv3 8) (_ bv2 8))))
(assert (not (= (_ bv3 8) (_ bv7 8))))
(assert (not (= (_ bv3 8) x77)))
(assert (not (= (_ bv3 8) (_ bv8 8))))
(assert (not (= (_ bv5 8) x73)))
(assert (not (= (_ bv5 8) x74)))
(assert (not (= (_ bv5 8) (_ bv2 8))))
(assert (not (= (_ bv5 8) (_ bv7 8))))
(assert (not (= (_ bv5 8) x77)))
(assert (not (= (_ bv5 8) (_ bv8 8))))
(assert (not (= x73 x74)))
(assert (not (= x73 (_ bv2 8))))
(assert (not (= x73 (_ bv7 8))))
(assert (not (= x73 x77)))
(assert (not (= x73 (_ bv8 8))))
(assert (not (= x74 (_ bv2 8))))
(assert (not (= x74 (_ bv7 8))))
(assert (not (= x74 x77)))
(assert (not (= x74 (_ bv8 8))))
(assert (not (= (_ bv2 8) (_ bv7 8))))
(assert (not (= (_ bv2 8) x77)))
(assert (not (= (_ bv2 8) (_ bv8 8))))
(assert (not (= (_ bv7 8) x77)))
(assert (not (= (_ bv7 8) (_ bv8 8))))
(assert (not (= x77 (_ bv8 8))))
(assert (not (= x80 (_ bv7 8))))
(assert (not (= x80 x82)))
(assert (not (= x80 (_ bv4 8))))
(assert (not (= x80 (_ bv8 8))))
(assert (not (= x80 x85)))
(assert (not (= x80 x86)))
(assert (not (= x80 x87)))
(assert (not (= x80 (_ bv2 8))))
(assert (not (= (_ bv7 8) x82)))
(assert (not (= (_ bv7 8) (_ bv4 8))))
(assert (not (= (_ bv7 8) (_ bv8 8))))
(assert (not (= (_ bv7 8) x85)))
(assert (not (= (_ bv7 8) x86)))
(assert (not (= (_ bv7 8) x87)))
(assert (not (= (_ bv7 8) (_ bv2 8))))
(assert (not (= x82 (_ bv4 8))))
(assert (not (= x82 (_ bv8 8))))
(assert (not (= x82 x85)))
(assert (not (= x82 x86)))
(assert (not (= x82 x87)))
(assert (not (= x82 (_ bv2 8))))
(assert (not (= (_ bv4 8) (_ bv8 8))))
(assert (not (= (_ bv4 8) x85)))
(assert (not (= (_ bv4 8) x86)))
(assert (not (= (_ bv4 8) x87)))
(assert (not (= (_ bv4 8) (_ bv2 8))))
(assert (not (= (_ bv8 8) x85)))
(assert (not (= (_ bv8 8) x86)))
(assert (not (= (_ bv8 8) x87)))
(assert (not (= (_ bv8 8) (_ bv2 8))))
(assert (not (= x85 x86)))
(assert (not (= x85 x87)))
(assert (not (= x85 (_ bv2 8))))
(assert (not (= x86 x87)))
(assert (not (= x86 (_ bv2 8))))
(assert (not (= x87 (_ bv2 8))))
(assert (not (= x00 x10)))
(assert (not (= x00 x20)))
(assert (not (= x00 x30)))
(assert (not (= x00 (_ bv7 8))))
(assert (not (= x00 (_ bv1 8))))
(assert (not (= x00 (_ bv6 8))))
(assert (not (= x00 x70)))
(assert (not (= x00 x80)))
(assert (not (= x10 x20)))
(assert (not (= x10 x30)))
(assert (not (= x10 (_ bv7 8))))
(assert (not (= x10 (_ bv1 8))))
(assert (not (= x10 (_ bv6 8))))
(assert (not (= x10 x70)))
(assert (not (= x10 x80)))
(assert (not (= x20 x30)))
(assert (not (= x20 (_ bv7 8))))
(assert (not (= x20 (_ bv1 8))))
(assert (not (= x20 (_ bv6 8))))
(assert (not (= x20 x70)))
(assert (not (= x20 x80)))
(assert (not (= x30 (_ bv7 8))))
(assert (not (= x30 (_ bv1 8))))
(assert (not (= x30 (_ bv6 8))))
(assert (not (= x30 x70)))
(assert (not (= x30 x80)))
(assert (not (= (_ bv7 8) (_ bv1 8))))
(assert (not (= (_ bv7 8) (_ bv6 8))))
(assert (not (= (_ bv7 8) x70)))
(assert (not (= (_ bv7 8) x80)))
(assert (not (= (_ bv1 8) (_ bv6 8))))
(assert (not (= (_ bv1 8) x70)))
(assert (not (= (_ bv1 8) x80)))
(assert (not (= (_ bv6 8) x70)))
(assert (not (= (_ bv6 8) x80)))
(assert (not (= x70 x80)))
(assert (not (= (_ bv9 8) (_ bv4 8))))
(assert (not (= (_ bv9 8) x21)))
(assert (not (= (_ bv9 8) (_ bv6 8))))
(assert (not (= (_ bv9 8) x41)))
(assert (not (= (_ bv9 8) x51)))
(assert (not (= (_ bv9 8) x61)))
(assert (not (= (_ bv9 8) (_ bv3 8))))
(assert (not (= (_ bv9 8) (_ bv7 8))))
(assert (not (= (_ bv4 8) x21)))
(assert (not (= (_ bv4 8) (_ bv6 8))))
(assert (not (= (_ bv4 8) x41)))
(assert (not (= (_ bv4 8) x51)))
(assert (not (= (_ bv4 8) x61)))
(assert (not (= (_ bv4 8) (_ bv3 8))))
(assert (not (= (_ bv4 8) (_ bv7 8))))
(assert (not (= x21 (_ bv6 8))))
(assert (not (= x21 x41)))
(assert (not (= x21 x51)))
(assert (not (= x21 x61)))
(assert (not (= x21 (_ bv3 8))))
(assert (not (= x21 (_ bv7 8))))
(assert (not (= (_ bv6 8) x41)))
(assert (not (= (_ bv6 8) x51)))
(assert (not (= (_ bv6 8) x61)))
(assert (not (= (_ bv6 8) (_ bv3 8))))
(assert (not (= (_ bv6 8) (_ bv7 8))))
(assert (not (= x41 x51)))
(assert (not (= x41 x61)))
(assert (not (= x41 (_ bv3 8))))
(assert (not (= x41 (_ bv7 8))))
(assert (not (= x51 x61)))
(assert (not (= x51 (_ bv3 8))))
(assert (not (= x51 (_ bv7 8))))
(assert (not (= x61 (_ bv3 8))))
(assert (not (= x61 (_ bv7 8))))
(assert (not (= (_ bv3 8) (_ bv7 8))))
(assert (not (= x02 (_ bv8 8))))
(assert (not (= x02 x22)))
(assert (not (= x02 x32)))
(assert (not (= x02 x42)))
(assert (not (= x02 (_ bv9 8))))
(assert (not (= x02 x62)))
(assert (not (= x02 (_ bv5 8))))
(assert (not (= x02 x82)))
(assert (not (= (_ bv8 8) x22)))
(assert (not (= (_ bv8 8) x32)))
(assert (not (= (_ bv8 8) x42)))
(assert (not (= (_ bv8 8) (_ bv9 8))))
(assert (not (= (_ bv8 8) x62)))
(assert (not (= (_ bv8 8) (_ bv5 8))))
(assert (not (= (_ bv8 8) x82)))
(assert (not (= x22 x32)))
(assert (not (= x22 x42)))
(assert (not (= x22 (_ bv9 8))))
(assert (not (= x22 x62)))
(assert (not (= x22 (_ bv5 8))))
(assert (not (= x22 x82)))
(assert (not (= x32 x42)))
(assert (not (= x32 (_ bv9 8))))
(assert (not (= x32 x62)))
(assert (not (= x32 (_ bv5 8))))
(assert (not (= x32 x82)))
(assert (not (= x42 (_ bv9 8))))
(assert (not (= x42 x62)))
(assert (not (= x42 (_ bv5 8))))
(assert (not (= x42 x82)))
(assert (not (= (_ bv9 8) x62)))
(assert (not (= (_ bv9 8) (_ bv5 8))))
(assert (not (= (_ bv9 8) x82)))
(assert (not (= x62 (_ bv5 8))))
(assert (not (= x62 x82)))
(assert (not (= (_ bv5 8) x82)))
(assert (not (= (_ bv6 8) (_ bv9 8))))
(assert (not (= (_ bv6 8) x23)))
(assert (not (= (_ bv6 8) x33)))
(assert (not (= (_ bv6 8) (_ bv3 8))))
(assert (not (= (_ bv6 8) (_ bv7 8))))
(assert (not (= (_ bv6 8) x63)))
(assert (not (= (_ bv6 8) x73)))
(assert (not (= (_ bv6 8) (_ bv4 8))))
(assert (not (= (_ bv9 8) x23)))
(assert (not (= (_ bv9 8) x33)))
(assert (not (= (_ bv9 8) (_ bv3 8))))
(assert (not (= (_ bv9 8) (_ bv7 8))))
(assert (not (= (_ bv9 8) x63)))
(assert (not (= (_ bv9 8) x73)))
(assert (not (= (_ bv9 8) (_ bv4 8))))
(assert (not (= x23 x33)))
(assert (not (= x23 (_ bv3 8))))
(assert (not (= x23 (_ bv7 8))))
(assert (not (= x23 x63)))
(assert (not (= x23 x73)))
(assert (not (= x23 (_ bv4 8))))
(assert (not (= x33 (_ bv3 8))))
(assert (not (= x33 (_ bv7 8))))
(assert (not (= x33 x63)))
(assert (not (= x33 x73)))
(assert (not (= x33 (_ bv4 8))))
(assert (not (= (_ bv3 8) (_ bv7 8))))
(assert (not (= (_ bv3 8) x63)))
(assert (not (= (_ bv3 8) x73)))
(assert (not (= (_ bv3 8) (_ bv4 8))))
(assert (not (= (_ bv7 8) x63)))
(assert (not (= (_ bv7 8) x73)))
(assert (not (= (_ bv7 8) (_ bv4 8))))
(assert (not (= x63 x73)))
(assert (not (= x63 (_ bv4 8))))
(assert (not (= x73 (_ bv4 8))))
(assert (not (= (_ bv2 8) x14)))
(assert (not (= (_ bv2 8) x24)))
(assert (not (= (_ bv2 8) x34)))
(assert (not (= (_ bv2 8) x44)))
(assert (not (= (_ bv2 8) x54)))
(assert (not (= (_ bv2 8) x64)))
(assert (not (= (_ bv2 8) x74)))
(assert (not (= (_ bv2 8) (_ bv8 8))))
(assert (not (= x14 x24)))
(assert (not (= x14 x34)))
(assert (not (= x14 x44)))
(assert (not (= x14 x54)))
(assert (not (= x14 x64)))
(assert (not (= x14 x74)))
(assert (not (= x14 (_ bv8 8))))
(assert (not (= x24 x34)))
(assert (not (= x24 x44)))
(assert (not (= x24 x54)))
(assert (not (= x24 x64)))
(assert (not (= x24 x74)))
(assert (not (= x24 (_ bv8 8))))
(assert (not (= x34 x44)))
(assert (not (= x34 x54)))
(assert (not (= x34 x64)))
(assert (not (= x34 x74)))
(assert (not (= x34 (_ bv8 8))))
(assert (not (= x44 x54)))
(assert (not (= x44 x64)))
(assert (not (= x44 x74)))
(assert (not (= x44 (_ bv8 8))))
(assert (not (= x54 x64)))
(assert (not (= x54 x74)))
(assert (not (= x54 (_ bv8 8))))
(assert (not (= x64 x74)))
(assert (not (= x64 (_ bv8 8))))
(assert (not (= x74 (_ bv8 8))))
(assert (not (= (_ bv3 8) x15)))
(assert (not (= (_ bv3 8) x25)))
(assert (not (= (_ bv3 8) (_ bv9 8))))
(assert (not (= (_ bv3 8) x45)))
(assert (not (= (_ bv3 8) (_ bv5 8))))
(assert (not (= (_ bv3 8) x65)))
(assert (not (= (_ bv3 8) (_ bv2 8))))
(assert (not (= (_ bv3 8) x85)))
(assert (not (= x15 x25)))
(assert (not (= x15 (_ bv9 8))))
(assert (not (= x15 x45)))
(assert (not (= x15 (_ bv5 8))))
(assert (not (= x15 x65)))
(assert (not (= x15 (_ bv2 8))))
(assert (not (= x15 x85)))
(assert (not (= x25 (_ bv9 8))))
(assert (not (= x25 x45)))
(assert (not (= x25 (_ bv5 8))))
(assert (not (= x25 x65)))
(assert (not (= x25 (_ bv2 8))))
(assert (not (= x25 x85)))
(assert (not (= (_ bv9 8) x45)))
(assert (not (= (_ bv9 8) (_ bv5 8))))
(assert (not (= (_ bv9 8) x65)))
(assert (not (= (_ bv9 8) (_ bv2 8))))
(assert (not (= (_ bv9 8) x85)))
(assert (not (= x45 (_ bv5 8))))
(assert (not (= x45 x65)))
(assert (not (= x45 (_ bv2 8))))
(assert (not (= x45 x85)))
(assert (not (= (_ bv5 8) x65)))
(assert (not (= (_ bv5 8) (_ bv2 8))))
(assert (not (= (_ bv5 8) x85)))
(assert (not (= x65 (_ bv2 8))))
(assert (not (= x65 x85)))
(assert (not (= (_ bv2 8) x85)))
(assert (not (= x06 x16)))
(assert (not (= x06 x26)))
(assert (not (= x06 (_ bv4 8))))
(assert (not (= x06 (_ bv1 8))))
(assert (not (= x06 (_ bv3 8))))
(assert (not (= x06 x66)))
(assert (not (= x06 (_ bv7 8))))
(assert (not (= x06 x86)))
(assert (not (= x16 x26)))
(assert (not (= x16 (_ bv4 8))))
(assert (not (= x16 (_ bv1 8))))
(assert (not (= x16 (_ bv3 8))))
(assert (not (= x16 x66)))
(assert (not (= x16 (_ bv7 8))))
(assert (not (= x16 x86)))
(assert (not (= x26 (_ bv4 8))))
(assert (not (= x26 (_ bv1 8))))
(assert (not (= x26 (_ bv3 8))))
(assert (not (= x26 x66)))
(assert (not (= x26 (_ bv7 8))))
(assert (not (= x26 x86)))
(assert (not (= (_ bv4 8) (_ bv1 8))))
(assert (not (= (_ bv4 8) (_ bv3 8))))
(assert (not (= (_ bv4 8) x66)))
(assert (not (= (_ bv4 8) (_ bv7 8))))
(assert (not (= (_ bv4 8) x86)))
(assert (not (= (_ bv1 8) (_ bv3 8))))
(assert (not (= (_ bv1 8) x66)))
(assert (not (= (_ bv1 8) (_ bv7 8))))
(assert (not (= (_ bv1 8) x86)))
(assert (not (= (_ bv3 8) x66)))
(assert (not (= (_ bv3 8) (_ bv7 8))))
(assert (not (= (_ bv3 8) x86)))
(assert (not (= x66 (_ bv7 8))))
(assert (not (= x66 x86)))
(assert (not (= (_ bv7 8) x86)))
(assert (not (= (_ bv1 8) x17)))
(assert (not (= (_ bv1 8) (_ bv9 8))))
(assert (not (= (_ bv1 8) (_ bv5 8))))
(assert (not (= (_ bv1 8) x47)))
(assert (not (= (_ bv1 8) x57)))
(assert (not (= (_ bv1 8) x67)))
(assert (not (= (_ bv1 8) x77)))
(assert (not (= (_ bv1 8) x87)))
(assert (not (= x17 (_ bv9 8))))
(assert (not (= x17 (_ bv5 8))))
(assert (not (= x17 x47)))
(assert (not (= x17 x57)))
(assert (not (= x17 x67)))
(assert (not (= x17 x77)))
(assert (not (= x17 x87)))
(assert (not (= (_ bv9 8) (_ bv5 8))))
(assert (not (= (_ bv9 8) x47)))
(assert (not (= (_ bv9 8) x57)))
(assert (not (= (_ bv9 8) x67)))
(assert (not (= (_ bv9 8) x77)))
(assert (not (= (_ bv9 8) x87)))
(assert (not (= (_ bv5 8) x47)))
(assert (not (= (_ bv5 8) x57)))
(assert (not (= (_ bv5 8) x67)))
(assert (not (= (_ bv5 8) x77)))
(assert (not (= (_ bv5 8) x87)))
(assert (not (= x47 x57)))
(assert (not (= x47 x67)))
(assert (not (= x47 x77)))
(assert (not (= x47 x87)))
(assert (not (= x57 x67)))
(assert (not (= x57 x77)))
(assert (not (= x57 x87)))
(assert (not (= x67 x77)))
(assert (not (= x67 x87)))
(assert (not (= x77 x87)))
(assert (not (= x08 x18)))
(assert (not (= x08 (_ bv5 8))))
(assert (not (= x08 x38)))
(assert (not (= x08 x48)))
(assert (not (= x08 x58)))
(assert (not (= x08 x68)))
(assert (not (= x08 (_ bv8 8))))
(assert (not (= x08 (_ bv2 8))))
(assert (not (= x18 (_ bv5 8))))
(assert (not (= x18 x38)))
(assert (not (= x18 x48)))
(assert (not (= x18 x58)))
(assert (not (= x18 x68)))
(assert (not (= x18 (_ bv8 8))))
(assert (not (= x18 (_ bv2 8))))
(assert (not (= (_ bv5 8) x38)))
(assert (not (= (_ bv5 8) x48)))
(assert (not (= (_ bv5 8) x58)))
(assert (not (= (_ bv5 8) x68)))
(assert (not (= (_ bv5 8) (_ bv8 8))))
(assert (not (= (_ bv5 8) (_ bv2 8))))
(assert (not (= x38 x48)))
(assert (not (= x38 x58)))
(assert (not (= x38 x68)))
(assert (not (= x38 (_ bv8 8))))
(assert (not (= x38 (_ bv2 8))))
(assert (not (= x48 x58)))
(assert (not (= x48 x68)))
(assert (not (= x48 (_ bv8 8))))
(assert (not (= x48 (_ bv2 8))))
(assert (not (= x58 x68)))
(assert (not (= x58 (_ bv8 8))))
(assert (not (= x58 (_ bv2 8))))
(assert (not (= x68 (_ bv8 8))))
(assert (not (= x68 (_ bv2 8))))
(assert (not (= (_ bv8 8) (_ bv2 8))))
(assert (not (= x00 (_ bv9 8))))
(assert (not (= x00 x02)))
(assert (not (= x00 x10)))
(assert (not (= x00 (_ bv4 8))))
(assert (not (= x00 (_ bv8 8))))
(assert (not (= x00 x20)))
(assert (not (= x00 x21)))
(assert (not (= x00 x22)))
(assert (not (= (_ bv9 8) x02)))
(assert (not (= (_ bv9 8) x10)))
(assert (not (= (_ bv9 8) (_ bv4 8))))
(assert (not (= (_ bv9 8) (_ bv8 8))))
(assert (not (= (_ bv9 8) x20)))
(assert (not (= (_ bv9 8) x21)))
(assert (not (= (_ bv9 8) x22)))
(assert (not (= x02 x10)))
(assert (not (= x02 (_ bv4 8))))
(assert (not (= x02 (_ bv8 8))))
(assert (not (= x02 x20)))
(assert (not (= x02 x21)))
(assert (not (= x02 x22)))
(assert (not (= x10 (_ bv4 8))))
(assert (not (= x10 (_ bv8 8))))
(assert (not (= x10 x20)))
(assert (not (= x10 x21)))
(assert (not (= x10 x22)))
(assert (not (= (_ bv4 8) (_ bv8 8))))
(assert (not (= (_ bv4 8) x20)))
(assert (not (= (_ bv4 8) x21)))
(assert (not (= (_ bv4 8) x22)))
(assert (not (= (_ bv8 8) x20)))
(assert (not (= (_ bv8 8) x21)))
(assert (not (= (_ bv8 8) x22)))
(assert (not (= x20 x21)))
(assert (not (= x20 x22)))
(assert (not (= x21 x22)))
(assert (not (= (_ bv6 8) (_ bv2 8))))
(assert (not (= (_ bv6 8) (_ bv3 8))))
(assert (not (= (_ bv6 8) (_ bv9 8))))
(assert (not (= (_ bv6 8) x14)))
(assert (not (= (_ bv6 8) x15)))
(assert (not (= (_ bv6 8) x23)))
(assert (not (= (_ bv6 8) x24)))
(assert (not (= (_ bv6 8) x25)))
(assert (not (= (_ bv2 8) (_ bv3 8))))
(assert (not (= (_ bv2 8) (_ bv9 8))))
(assert (not (= (_ bv2 8) x14)))
(assert (not (= (_ bv2 8) x15)))
(assert (not (= (_ bv2 8) x23)))
(assert (not (= (_ bv2 8) x24)))
(assert (not (= (_ bv2 8) x25)))
(assert (not (= (_ bv3 8) (_ bv9 8))))
(assert (not (= (_ bv3 8) x14)))
(assert (not (= (_ bv3 8) x15)))
(assert (not (= (_ bv3 8) x23)))
(assert (not (= (_ bv3 8) x24)))
(assert (not (= (_ bv3 8) x25)))
(assert (not (= (_ bv9 8) x14)))
(assert (not (= (_ bv9 8) x15)))
(assert (not (= (_ bv9 8) x23)))
(assert (not (= (_ bv9 8) x24)))
(assert (not (= (_ bv9 8) x25)))
(assert (not (= x14 x15)))
(assert (not (= x14 x23)))
(assert (not (= x14 x24)))
(assert (not (= x14 x25)))
(assert (not (= x15 x23)))
(assert (not (= x15 x24)))
(assert (not (= x15 x25)))
(assert (not (= x23 x24)))
(assert (not (= x23 x25)))
(assert (not (= x24 x25)))
(assert (not (= x06 (_ bv1 8))))
(assert (not (= x06 x08)))
(assert (not (= x06 x16)))
(assert (not (= x06 x17)))
(assert (not (= x06 x18)))
(assert (not (= x06 x26)))
(assert (not (= x06 (_ bv9 8))))
(assert (not (= x06 (_ bv5 8))))
(assert (not (= (_ bv1 8) x08)))
(assert (not (= (_ bv1 8) x16)))
(assert (not (= (_ bv1 8) x17)))
(assert (not (= (_ bv1 8) x18)))
(assert (not (= (_ bv1 8) x26)))
(assert (not (= (_ bv1 8) (_ bv9 8))))
(assert (not (= (_ bv1 8) (_ bv5 8))))
(assert (not (= x08 x16)))
(assert (not (= x08 x17)))
(assert (not (= x08 x18)))
(assert (not (= x08 x26)))
(assert (not (= x08 (_ bv9 8))))
(assert (not (= x08 (_ bv5 8))))
(assert (not (= x16 x17)))
(assert (not (= x16 x18)))
(assert (not (= x16 x26)))
(assert (not (= x16 (_ bv9 8))))
(assert (not (= x16 (_ bv5 8))))
(assert (not (= x17 x18)))
(assert (not (= x17 x26)))
(assert (not (= x17 (_ bv9 8))))
(assert (not (= x17 (_ bv5 8))))
(assert (not (= x18 x26)))
(assert (not (= x18 (_ bv9 8))))
(assert (not (= x18 (_ bv5 8))))
(assert (not (= x26 (_ bv9 8))))
(assert (not (= x26 (_ bv5 8))))
(assert (not (= (_ bv9 8) (_ bv5 8))))
(assert (not (= x30 (_ bv6 8))))
(assert (not (= x30 x32)))
(assert (not (= x30 (_ bv7 8))))
(assert (not (= x30 x41)))
(assert (not (= x30 x42)))
(assert (not (= x30 (_ bv1 8))))
(assert (not (= x30 x51)))
(assert (not (= x30 (_ bv9 8))))
(assert (not (= (_ bv6 8) x32)))
(assert (not (= (_ bv6 8) (_ bv7 8))))
(assert (not (= (_ bv6 8) x41)))
(assert (not (= (_ bv6 8) x42)))
(assert (not (= (_ bv6 8) (_ bv1 8))))
(assert (not (= (_ bv6 8) x51)))
(assert (not (= (_ bv6 8) (_ bv9 8))))
(assert (not (= x32 (_ bv7 8))))
(assert (not (= x32 x41)))
(assert (not (= x32 x42)))
(assert (not (= x32 (_ bv1 8))))
(assert (not (= x32 x51)))
(assert (not (= x32 (_ bv9 8))))
(assert (not (= (_ bv7 8) x41)))
(assert (not (= (_ bv7 8) x42)))
(assert (not (= (_ bv7 8) (_ bv1 8))))
(assert (not (= (_ bv7 8) x51)))
(assert (not (= (_ bv7 8) (_ bv9 8))))
(assert (not (= x41 x42)))
(assert (not (= x41 (_ bv1 8))))
(assert (not (= x41 x51)))
(assert (not (= x41 (_ bv9 8))))
(assert (not (= x42 (_ bv1 8))))
(assert (not (= x42 x51)))
(assert (not (= x42 (_ bv9 8))))
(assert (not (= (_ bv1 8) x51)))
(assert (not (= (_ bv1 8) (_ bv9 8))))
(assert (not (= x51 (_ bv9 8))))
(assert (not (= x33 x34)))
(assert (not (= x33 (_ bv9 8))))
(assert (not (= x33 (_ bv3 8))))
(assert (not (= x33 x44)))
(assert (not (= x33 x45)))
(assert (not (= x33 (_ bv7 8))))
(assert (not (= x33 x54)))
(assert (not (= x33 (_ bv5 8))))
(assert (not (= x34 (_ bv9 8))))
(assert (not (= x34 (_ bv3 8))))
(assert (not (= x34 x44)))
(assert (not (= x34 x45)))
(assert (not (= x34 (_ bv7 8))))
(assert (not (= x34 x54)))
(assert (not (= x34 (_ bv5 8))))
(assert (not (= (_ bv9 8) (_ bv3 8))))
(assert (not (= (_ bv9 8) x44)))
(assert (not (= (_ bv9 8) x45)))
(assert (not (= (_ bv9 8) (_ bv7 8))))
(assert (not (= (_ bv9 8) x54)))
(assert (not (= (_ bv9 8) (_ bv5 8))))
(assert (not (= (_ bv3 8) x44)))
(assert (not (= (_ bv3 8) x45)))
(assert (not (= (_ bv3 8) (_ bv7 8))))
(assert (not (= (_ bv3 8) x54)))
(assert (not (= (_ bv3 8) (_ bv5 8))))
(assert (not (= x44 x45)))
(assert (not (= x44 (_ bv7 8))))
(assert (not (= x44 x54)))
(assert (not (= x44 (_ bv5 8))))
(assert (not (= x45 (_ bv7 8))))
(assert (not (= x45 x54)))
(assert (not (= x45 (_ bv5 8))))
(assert (not (= (_ bv7 8) x54)))
(assert (not (= (_ bv7 8) (_ bv5 8))))
(assert (not (= x54 (_ bv5 8))))
(assert (not (= (_ bv4 8) (_ bv5 8))))
(assert (not (= (_ bv4 8) x38)))
(assert (not (= (_ bv4 8) (_ bv1 8))))
(assert (not (= (_ bv4 8) x47)))
(assert (not (= (_ bv4 8) x48)))
(assert (not (= (_ bv4 8) (_ bv3 8))))
(assert (not (= (_ bv4 8) x57)))
(assert (not (= (_ bv4 8) x58)))
(assert (not (= (_ bv5 8) x38)))
(assert (not (= (_ bv5 8) (_ bv1 8))))
(assert (not (= (_ bv5 8) x47)))
(assert (not (= (_ bv5 8) x48)))
(assert (not (= (_ bv5 8) (_ bv3 8))))
(assert (not (= (_ bv5 8) x57)))
(assert (not (= (_ bv5 8) x58)))
(assert (not (= x38 (_ bv1 8))))
(assert (not (= x38 x47)))
(assert (not (= x38 x48)))
(assert (not (= x38 (_ bv3 8))))
(assert (not (= x38 x57)))
(assert (not (= x38 x58)))
(assert (not (= (_ bv1 8) x47)))
(assert (not (= (_ bv1 8) x48)))
(assert (not (= (_ bv1 8) (_ bv3 8))))
(assert (not (= (_ bv1 8) x57)))
(assert (not (= (_ bv1 8) x58)))
(assert (not (= x47 x48)))
(assert (not (= x47 (_ bv3 8))))
(assert (not (= x47 x57)))
(assert (not (= x47 x58)))
(assert (not (= x48 (_ bv3 8))))
(assert (not (= x48 x57)))
(assert (not (= x48 x58)))
(assert (not (= (_ bv3 8) x57)))
(assert (not (= (_ bv3 8) x58)))
(assert (not (= x57 x58)))
(assert (not (= (_ bv6 8) x61)))
(assert (not (= (_ bv6 8) x62)))
(assert (not (= (_ bv6 8) x70)))
(assert (not (= (_ bv6 8) (_ bv3 8))))
(assert (not (= (_ bv6 8) (_ bv5 8))))
(assert (not (= (_ bv6 8) x80)))
(assert (not (= (_ bv6 8) (_ bv7 8))))
(assert (not (= (_ bv6 8) x82)))
(assert (not (= x61 x62)))
(assert (not (= x61 x70)))
(assert (not (= x61 (_ bv3 8))))
(assert (not (= x61 (_ bv5 8))))
(assert (not (= x61 x80)))
(assert (not (= x61 (_ bv7 8))))
(assert (not (= x61 x82)))
(assert (not (= x62 x70)))
(assert (not (= x62 (_ bv3 8))))
(assert (not (= x62 (_ bv5 8))))
(assert (not (= x62 x80)))
(assert (not (= x62 (_ bv7 8))))
(assert (not (= x62 x82)))
(assert (not (= x70 (_ bv3 8))))
(assert (not (= x70 (_ bv5 8))))
(assert (not (= x70 x80)))
(assert (not (= x70 (_ bv7 8))))
(assert (not (= x70 x82)))
(assert (not (= (_ bv3 8) (_ bv5 8))))
(assert (not (= (_ bv3 8) x80)))
(assert (not (= (_ bv3 8) (_ bv7 8))))
(assert (not (= (_ bv3 8) x82)))
(assert (not (= (_ bv5 8) x80)))
(assert (not (= (_ bv5 8) (_ bv7 8))))
(assert (not (= (_ bv5 8) x82)))
(assert (not (= x80 (_ bv7 8))))
(assert (not (= x80 x82)))
(assert (not (= (_ bv7 8) x82)))
(assert (not (= x63 x64)))
(assert (not (= x63 x65)))
(assert (not (= x63 x73)))
(assert (not (= x63 x74)))
(assert (not (= x63 (_ bv2 8))))
(assert (not (= x63 (_ bv4 8))))
(assert (not (= x63 (_ bv8 8))))
(assert (not (= x63 x85)))
(assert (not (= x64 x65)))
(assert (not (= x64 x73)))
(assert (not (= x64 x74)))
(assert (not (= x64 (_ bv2 8))))
(assert (not (= x64 (_ bv4 8))))
(assert (not (= x64 (_ bv8 8))))
(assert (not (= x64 x85)))
(assert (not (= x65 x73)))
(assert (not (= x65 x74)))
(assert (not (= x65 (_ bv2 8))))
(assert (not (= x65 (_ bv4 8))))
(assert (not (= x65 (_ bv8 8))))
(assert (not (= x65 x85)))
(assert (not (= x73 x74)))
(assert (not (= x73 (_ bv2 8))))
(assert (not (= x73 (_ bv4 8))))
(assert (not (= x73 (_ bv8 8))))
(assert (not (= x73 x85)))
(assert (not (= x74 (_ bv2 8))))
(assert (not (= x74 (_ bv4 8))))
(assert (not (= x74 (_ bv8 8))))
(assert (not (= x74 x85)))
(assert (not (= (_ bv2 8) (_ bv4 8))))
(assert (not (= (_ bv2 8) (_ bv8 8))))
(assert (not (= (_ bv2 8) x85)))
(assert (not (= (_ bv4 8) (_ bv8 8))))
(assert (not (= (_ bv4 8) x85)))
(assert (not (= (_ bv8 8) x85)))
(assert (not (= x66 x67)))
(assert (not (= x66 x68)))
(assert (not (= x66 (_ bv7 8))))
(assert (not (= x66 x77)))
(assert (not (= x66 (_ bv8 8))))
(assert (not (= x66 x86)))
(assert (not (= x66 x87)))
(assert (not (= x66 (_ bv2 8))))
(assert (not (= x67 x68)))
(assert (not (= x67 (_ bv7 8))))
(assert (not (= x67 x77)))
(assert (not (= x67 (_ bv8 8))))
(assert (not (= x67 x86)))
(assert (not (= x67 x87)))
(assert (not (= x67 (_ bv2 8))))
(assert (not (= x68 (_ bv7 8))))
(assert (not (= x68 x77)))
(assert (not (= x68 (_ bv8 8))))
(assert (not (= x68 x86)))
(assert (not (= x68 x87)))
(assert (not (= x68 (_ bv2 8))))
(assert (not (= (_ bv7 8) x77)))
(assert (not (= (_ bv7 8) (_ bv8 8))))
(assert (not (= (_ bv7 8) x86)))
(assert (not (= (_ bv7 8) x87)))
(assert (not (= (_ bv7 8) (_ bv2 8))))
(assert (not (= x77 (_ bv8 8))))
(assert (not (= x77 x86)))
(assert (not (= x77 x87)))
(assert (not (= x77 (_ bv2 8))))
(assert (not (= (_ bv8 8) x86)))
(assert (not (= (_ bv8 8) x87)))
(assert (not (= (_ bv8 8) (_ bv2 8))))
(assert (not (= x86 x87)))
(assert (not (= x86 (_ bv2 8))))
(assert (not (= x87 (_ bv2 8))))
(check-sat)
(exit)
